Running MiniSat on FULL_RUN_MINISAT\b087c195e5b7bb191d3a701aa0aa8cf1-Break_unsat_14_23.xml.cnf... 
============================[ Problem Statistics ]=============================
|                                                                             |
|  Number of variables:         22365                                         |
|  Number of clauses:           83896                                         |
|  Parse time:                   0.14 s                                       |
|                                                                             |
============================[ Search Statistics ]==============================
| Conflicts |          ORIGINAL         |          LEARNT          | Progress |
|           |    Vars  Clauses Literals |    Limit  Clauses Lit/Cl |          |
===============================================================================
|       100 |   22266    83800   193950 |    30726       99     43 |  0.443 % |
|       250 |   22266    83800   193950 |    33799      249     43 |  0.443 % |
|       475 |   22266    83796   193942 |    37179      474     43 |  0.443 % |
|       812 |   22266    83796   193942 |    40897      811     49 |  0.443 % |
|      1318 |   22266    83796   193942 |    44986     1317     54 |  0.443 % |
|      2077 |   22266    83796   193942 |    49485     2076     53 |  0.443 % |
|      3216 |   22266    83796   193942 |    54434     3215     65 |  0.443 % |
|      4924 |   22266    83796   193942 |    59877     4923     65 |  0.443 % |
|      7486 |   22266    83796   193942 |    65865     7485     84 |  0.443 % |
|     11330 |   22266    83796   193942 |    72451    11329     83 |  0.443 % |
|     17096 |   22266    83796   193942 |    79697    17095     82 |  0.443 % |
|     25745 |   22266    83796   193942 |    87666    25744     87 |  0.443 % |
|     38719 |   22266    83796   193942 |    96433    38718     89 |  0.443 % |
|     58180 |   22266    83796   193942 |   106076    58179     91 |  0.443 % |
Timeout reached. Terminating MiniSat... 
Finished MiniSat on FULL_RUN_MINISAT\bd12a2b66110451b050bd5d2943b1854-ITC2021_Early_10.xml.cnf 
